sat
(:eliminated-vars              11
 :max-memory                   51.99
 :memory                       18.13
 :nlsat-irrational-assignments 8
 :nlsat-propagations           19
 :nlsat-stages                 11
 :num-allocs                   239438402901.00
 :rlimit-count                 1333876
 :time                         155.12
 :total-time                   154.76)
